(set-logic HORN)
(declare-datatypes ((Nat_1 0)) (((Z_1 ) (S_1 (unS_0 Nat_1)))))
(declare-fun diseqNat_0 (Nat_1 Nat_1) Bool)
(declare-fun unS_1 (Nat_1 Nat_1) Bool)
(declare-fun isZ_0 (Nat_1) Bool)
(declare-fun isS_0 (Nat_1) Bool)
(assert (forall ((x_29 Nat_1) (x_28 Nat_1))
	(=> (= x_29 (S_1 x_28))
	    (unS_1 x_28 x_29))))
(assert (isZ_0 Z_1))
(assert (forall ((x_30 Nat_1))
	(isS_0 (S_1 x_30))))
(assert (forall ((x_31 Nat_1))
	(diseqNat_0 Z_1 (S_1 x_31))))
(assert (forall ((x_32 Nat_1))
	(diseqNat_0 (S_1 x_32) Z_1)))
(assert (forall ((x_33 Nat_1) (x_34 Nat_1))
	(=> (diseqNat_0 x_33 x_34)
	    (diseqNat_0 (S_1 x_33) (S_1 x_34)))))
(declare-fun add_0 (Nat_1 Nat_1 Nat_1) Bool)
(declare-fun minus_0 (Nat_1 Nat_1 Nat_1) Bool)
(declare-fun le_0 (Nat_1 Nat_1) Bool)
(declare-fun ge_0 (Nat_1 Nat_1) Bool)
(declare-fun lt_0 (Nat_1 Nat_1) Bool)
(declare-fun gt_0 (Nat_1 Nat_1) Bool)
(declare-fun mult_0 (Nat_1 Nat_1 Nat_1) Bool)
(declare-fun div_0 (Nat_1 Nat_1 Nat_1) Bool)
(declare-fun mod_0 (Nat_1 Nat_1 Nat_1) Bool)
(assert (forall ((y_3 Nat_1))
	(add_0 y_3 Z_1 y_3)))
(assert (forall ((x_26 Nat_1) (y_3 Nat_1) (r_0 Nat_1))
	(=> (add_0 r_0 x_26 y_3)
	    (add_0 (S_1 r_0) (S_1 x_26) y_3))))
(assert (forall ((y_3 Nat_1))
	(minus_0 Z_1 Z_1 y_3)))
(assert (forall ((x_26 Nat_1) (y_3 Nat_1) (r_0 Nat_1))
	(=> (minus_0 r_0 x_26 y_3)
	    (minus_0 (S_1 r_0) (S_1 x_26) y_3))))
(assert (forall ((y_3 Nat_1))
	(le_0 Z_1 y_3)))
(assert (forall ((x_26 Nat_1) (y_3 Nat_1))
	(=> (le_0 x_26 y_3)
	    (le_0 (S_1 x_26) (S_1 y_3)))))
(assert (forall ((y_3 Nat_1))
	(ge_0 y_3 Z_1)))
(assert (forall ((x_26 Nat_1) (y_3 Nat_1))
	(=> (ge_0 x_26 y_3)
	    (ge_0 (S_1 x_26) (S_1 y_3)))))
(assert (forall ((y_3 Nat_1))
	(lt_0 Z_1 (S_1 y_3))))
(assert (forall ((x_26 Nat_1) (y_3 Nat_1))
	(=> (lt_0 x_26 y_3)
	    (lt_0 (S_1 x_26) (S_1 y_3)))))
(assert (forall ((y_3 Nat_1))
	(gt_0 (S_1 y_3) Z_1)))
(assert (forall ((x_26 Nat_1) (y_3 Nat_1))
	(=> (gt_0 x_26 y_3)
	    (gt_0 (S_1 x_26) (S_1 y_3)))))
(assert (forall ((y_3 Nat_1))
	(mult_0 Z_1 Z_1 y_3)))
(assert (forall ((x_26 Nat_1) (y_3 Nat_1) (r_0 Nat_1) (z_3 Nat_1))
	(=>	(and (mult_0 r_0 x_26 y_3)
			(add_0 z_3 r_0 y_3))
		(mult_0 z_3 (S_1 x_26) y_3))))
(assert (forall ((x_26 Nat_1) (y_3 Nat_1))
	(=> (lt_0 x_26 y_3)
	    (div_0 Z_1 x_26 y_3))))
(assert (forall ((x_26 Nat_1) (y_3 Nat_1) (r_0 Nat_1) (z_3 Nat_1))
	(=>	(and (ge_0 x_26 y_3)
			(minus_0 z_3 x_26 y_3)
			(div_0 r_0 z_3 y_3))
		(div_0 (S_1 r_0) x_26 y_3))))
(assert (forall ((x_26 Nat_1) (y_3 Nat_1))
	(=> (lt_0 x_26 y_3)
	    (mod_0 x_26 x_26 y_3))))
(assert (forall ((x_26 Nat_1) (y_3 Nat_1) (r_0 Nat_1) (z_3 Nat_1))
	(=>	(and (ge_0 x_26 y_3)
			(minus_0 z_3 x_26 y_3)
			(mod_0 r_0 z_3 y_3))
		(mod_0 r_0 x_26 y_3))))
(declare-datatypes ((list_0 0)) (((nil_0 ) (cons_0 (head_0 Nat_1) (tail_0 list_0)))))
(declare-fun diseqlist_0 (list_0 list_0) Bool)
(declare-fun head_1 (Nat_1 list_0) Bool)
(declare-fun tail_1 (list_0 list_0) Bool)
(declare-fun isnil_0 (list_0) Bool)
(declare-fun iscons_0 (list_0) Bool)
(assert (forall ((x_38 list_0) (x_36 Nat_1) (x_37 list_0))
	(=> (= x_38 (cons_0 x_36 x_37))
	    (head_1 x_36 x_38))))
(assert (forall ((x_38 list_0) (x_36 Nat_1) (x_37 list_0))
	(=> (= x_38 (cons_0 x_36 x_37))
	    (tail_1 x_37 x_38))))
(assert (isnil_0 nil_0))
(assert (forall ((x_39 Nat_1) (x_40 list_0))
	(iscons_0 (cons_0 x_39 x_40))))
(assert (forall ((x_41 Nat_1) (x_42 list_0))
	(diseqlist_0 nil_0 (cons_0 x_41 x_42))))
(assert (forall ((x_43 Nat_1) (x_44 list_0))
	(diseqlist_0 (cons_0 x_43 x_44) nil_0)))
(assert (forall ((x_45 Nat_1) (x_46 list_0) (x_47 Nat_1) (x_48 list_0))
	(=> (diseqNat_0 x_45 x_47)
	    (diseqlist_0 (cons_0 x_45 x_46) (cons_0 x_47 x_48)))))
(assert (forall ((x_45 Nat_1) (x_46 list_0) (x_47 Nat_1) (x_48 list_0))
	(=> (diseqlist_0 x_46 x_48)
	    (diseqlist_0 (cons_0 x_45 x_46) (cons_0 x_47 x_48)))))
(declare-datatypes ((Nat_0 0)) (((Z_0 ) (S_0 (projS_0 Nat_0)))))
(declare-fun diseqNat_1 (Nat_0 Nat_0) Bool)
(declare-fun projS_1 (Nat_0 Nat_0) Bool)
(declare-fun isZ_1 (Nat_0) Bool)
(declare-fun isS_1 (Nat_0) Bool)
(assert (forall ((x_51 Nat_0) (x_50 Nat_0))
	(=> (= x_51 (S_0 x_50))
	    (projS_1 x_50 x_51))))
(assert (isZ_1 Z_0))
(assert (forall ((x_52 Nat_0))
	(isS_1 (S_0 x_52))))
(assert (forall ((x_53 Nat_0))
	(diseqNat_1 Z_0 (S_0 x_53))))
(assert (forall ((x_54 Nat_0))
	(diseqNat_1 (S_0 x_54) Z_0)))
(assert (forall ((x_55 Nat_0) (x_56 Nat_0))
	(=> (diseqNat_1 x_55 x_56)
	    (diseqNat_1 (S_0 x_55) (S_0 x_56)))))
(declare-fun take_0 (list_0 Nat_0 list_0) Bool)
(assert (forall ((x_0 Nat_0) (y_0 list_0) (z_0 Nat_0) (x_1 Nat_1) (x_2 list_0) (x_9 list_0) (x_10 list_0))
	(=>	(and (= x_9 (cons_0 x_1 x_10))
			(take_0 x_10 z_0 x_2)
			(= x_0 (S_0 z_0))
			(= y_0 (cons_0 x_1 x_2)))
		(take_0 x_9 x_0 y_0))))
(assert (forall ((x_0 Nat_0) (y_0 list_0) (z_0 Nat_0) (x_11 list_0))
	(=>	(and (= x_11 nil_0)
			(= x_0 (S_0 z_0))
			(= y_0 nil_0))
		(take_0 x_11 x_0 y_0))))
(assert (forall ((x_0 Nat_0) (y_0 list_0) (x_12 list_0))
	(=>	(and (= x_12 nil_0)
			(= x_0 Z_0))
		(take_0 x_12 x_0 y_0))))
(declare-fun drop_0 (list_0 Nat_0 list_0) Bool)
(assert (forall ((x_3 Nat_0) (y_1 list_0) (z_1 Nat_0) (x_4 Nat_1) (x_5 list_0) (x_13 list_0) (x_14 list_0))
	(=>	(and (= x_13 x_14)
			(drop_0 x_14 z_1 x_5)
			(= x_3 (S_0 z_1))
			(= y_1 (cons_0 x_4 x_5)))
		(drop_0 x_13 x_3 y_1))))
(assert (forall ((x_3 Nat_0) (y_1 list_0) (z_1 Nat_0) (x_15 list_0))
	(=>	(and (= x_15 nil_0)
			(= x_3 (S_0 z_1))
			(= y_1 nil_0))
		(drop_0 x_15 x_3 y_1))))
(assert (forall ((x_3 Nat_0) (y_1 list_0) (x_16 list_0))
	(=>	(and (= x_16 y_1)
			(= x_3 Z_0))
		(drop_0 x_16 x_3 y_1))))
(declare-fun x_6 (Nat_0 Nat_0 Nat_0) Bool)
(assert (forall ((x_7 Nat_0) (y_2 Nat_0) (z_2 Nat_0) (x_8 Nat_0) (x_17 Nat_0) (x_18 Nat_0))
	(=>	(and (= x_17 x_18)
			(x_6 x_18 z_2 x_8)
			(= x_7 (S_0 z_2))
			(= y_2 (S_0 x_8)))
		(x_6 x_17 x_7 y_2))))
(assert (forall ((x_7 Nat_0) (y_2 Nat_0) (z_2 Nat_0) (x_19 Nat_0))
	(=>	(and (= x_19 (S_0 z_2))
			(= x_7 (S_0 z_2))
			(= y_2 Z_0))
		(x_6 x_19 x_7 y_2))))
(assert (forall ((x_7 Nat_0) (y_2 Nat_0) (x_20 Nat_0))
	(=>	(and (= x_20 Z_0)
			(= x_7 Z_0))
		(x_6 x_20 x_7 y_2))))
(assert (forall ((n_0 Nat_0) (m_0 Nat_0) (xs_0 list_0) (x_21 list_0) (x_22 list_0) (x_23 Nat_0) (x_24 list_0) (x_25 list_0))
	(=>	(and (diseqlist_0 x_22 x_25)
			(take_0 x_21 m_0 xs_0)
			(drop_0 x_22 n_0 x_21)
			(x_6 x_23 m_0 n_0)
			(drop_0 x_24 n_0 xs_0)
			(take_0 x_25 x_23 x_24))
		false)))
(check-sat)
